rehearsal = [[0,1,1,1,0,0,1,0,1,1], [1,1,1,1,1,0,1,0,0,1], [0,1,1,0,1,1,0,1,0,1], [1,1,1,0,1,1,1,1,1,1], [0,1,1,0,1,1,0,1,0,0], [1,1,0,1,1,0,0,0,0,1], [0,0,1,1,0,1,0,1,1,1], [1,1,1,1,0,1,1,1,1,0], [1,1,1,1,1,1,0,1,0,1], [0,1,0,1,1,1,1,1,0,0], [1,1,0,1,0,1,1,0,1,1], [1,1,1,1,0,1,0,1,0,1], [1,1,0,1,1,0,0,0,1,1], [0,1,1,0,0,1,1,0,0,1], [1,1,1,1,0,1,1,1,1,0], [0,1,0,0,0,0,1,1,1,0], [0,1,1,1,1,1,1,1,1,1], [1,1,0,1,1,1,1,1,1,1], [1,1,1,1,1,0,1,1,1,1], [1,1,0,1,0,0,0,0,0,1], [0,1,1,0,1,1,1,1,1,0], [1,0,1,1,1,0,1,1,1,0], [1,1,1,0,1,1,0,1,1,1], [1,1,0,1,0,1,0,1,0,1], [1,1,1,1,0,1,0,1,1,1], [0,1,1,1,0,1,1,1,1,1], [1,1,1,1,0,1,0,1,1,0], [0,1,0,0,0,1,0,1,0,0], [1,1,1,0,0,1,0,1,1,1], [1,0,1,1,0,1,1,0,1,1], [0,1,1,1,1,0,1,1,1,1], [1,0,0,1,0,1,0,1,0,0], [1,1,1,0,1,1,0,1,1,0], [1,1,1,1,0,0,1,0,1,0], [1,1,1,1,1,1,1,1,1,0], [0,1,0,1,1,1,1,0,1,1], [1,1,1,1,1,0,0,0,1,1], [1,1,1,1,1,1,0,0,1,1], [1,1,1,0,1,1,1,0,1,0], [1,1,1,1,1,1,1,1,1,1], [0,1,1,1,1,1,0,0,0,1], [1,0,1,1,0,0,1,1,1,0], [1,0,0,1,0,1,1,1,1,1], [1,1,1,0,1,1,1,1,1,0], [1,0,1,1,1,1,1,0,1,0], [0,0,0,1,1,1,1,1,1,1], [1,1,1,0,0,1,1,1,0,1], [1,0,0,0,1,1,0,0,1,1], [1,1,1,1,1,0,1,1,1,1], [1,1,0,1,1,1,1,1,1,1]];
permutations = [7,9,1,4,10,2,3,5,6,8];